5 51
1 160
1 0
2 7
3 30
4 16
5 9
6 21
7 15
8 19
9 23
10 11
11 5
12 19
13 29
14 23
15 21
16 10
17 15
18 3
19 41
20 9
21 28
22 8
23 8
24 16
25 10
26 28
27 7
28 15
29 14
30 6
31 19
32 11
33 12
34 23
35 26
36 17
37 6
38 9
39 15
40 14
41 7
42 27
43 13
44 11
45 16
46 10
47 5
48 25
49 17
50 18
51 10
1 1 0.0
1 2 14.0
1 3 21.0
1 4 33.0
1 5 17.0
1 6 14.0
1 7 11.0
1 8 26.0
1 9 22.0
1 10 23.0
1 11 28.0
1 12 12.0
1 13 8.0
1 14 29.0
1 15 18.0
1 16 25.0
1 17 22.0
1 18 17.0
1 19 15.0
1 20 32.0
1 21 32.0
1 22 32.0
1 23 21.0
1 24 22.0
1 25 25.0
1 26 23.0
1 27 28.0
1 28 8.0
1 29 30.0
1 30 29.0
1 31 31.0
1 32 30.0
1 33 10.0
1 34 34.0
1 35 32.0
1 36 39.0
1 37 44.0
1 38 18.0
1 39 16.0
1 40 38.0
1 41 42.0
1 42 30.0
1 43 31.0
1 44 35.0
1 45 25.0
1 46 31.0
1 47 2.0
1 48 9.0
1 49 16.0
1 50 22.0
1 51 26.0
2 1 14.0
2 2 0.0
2 3 12.0
2 4 19.0
2 5 31.0
2 6 22.0
2 7 17.0
2 8 23.0
2 9 12.0
2 10 24.0
2 11 34.0
2 12 12.0
2 13 21.0
2 14 42.0
2 15 27.0
2 16 36.0
2 17 19.0
2 18 31.0
2 19 28.0
2 20 46.0
2 21 21.0
2 22 27.0
2 23 7.0
2 24 22.0
2 25 29.0
2 26 33.0
2 27 19.0
2 28 8.0
2 29 16.0
2 30 21.0
2 31 33.0
2 32 17.0
2 33 6.0
2 34 43.0
2 35 31.0
2 36 27.0
2 37 31.0
2 38 30.0
2 39 19.0
2 40 43.0
2 41 56.0
2 42 44.0
2 43 45.0
2 44 34.0
2 45 38.0
2 46 42.0
2 47 14.0
2 48 23.0
2 49 12.0
2 50 26.0
2 51 24.0
3 1 21.0
3 2 12.0
3 3 0.0
3 4 15.0
3 5 37.0
3 6 21.0
3 7 28.0
3 8 35.0
3 9 22.0
3 10 16.0
3 11 28.0
3 12 11.0
3 13 25.0
3 14 50.0
3 15 38.0
3 16 35.0
3 17 9.0
3 18 34.0
3 19 36.0
3 20 51.0
3 21 12.0
3 22 15.0
3 23 11.0
3 24 34.0
3 25 41.0
3 26 43.0
3 27 29.0
3 28 19.0
3 29 19.0
3 30 9.0
3 31 24.0
3 32 23.0
3 33 11.0
3 34 39.0
3 35 20.0
3 36 19.0
3 37 24.0
3 38 32.0
3 39 15.0
3 40 35.0
3 41 62.0
3 42 50.0
3 43 48.0
3 44 46.0
3 45 39.0
3 46 40.0
3 47 20.0
3 48 29.0
3 49 25.0
3 50 21.0
3 51 14.0
4 1 33.0
4 2 19.0
4 3 15.0
4 4 0.0
4 5 50.0
4 6 36.0
4 7 35.0
4 8 35.0
4 9 21.0
4 10 31.0
4 11 43.0
4 12 25.0
4 13 38.0
4 14 61.0
4 15 46.0
4 16 51.0
4 17 23.0
4 18 48.0
4 19 47.0
4 20 64.0
4 21 8.0
4 22 24.0
4 23 12.0
4 24 37.0
4 25 46.0
4 26 52.0
4 27 25.0
4 28 27.0
4 29 9.0
4 30 17.0
4 31 37.0
4 32 16.0
4 33 23.0
4 34 54.0
4 35 32.0
4 36 10.0
4 37 12.0
4 38 47.0
4 39 30.0
4 40 49.0
4 41 75.0
4 42 63.0
4 43 62.0
4 44 47.0
4 45 54.0
4 46 56.0
4 47 32.0
4 48 42.0
4 49 28.0
4 50 36.0
4 51 27.0
5 1 17.0
5 2 31.0
5 3 37.0
5 4 50.0
5 5 0.0
5 6 20.0
5 7 21.0
5 8 37.0
5 9 38.0
5 10 33.0
5 11 31.0
5 12 27.0
5 13 13.0
5 14 15.0
5 15 18.0
5 16 19.0
5 17 35.0
5 18 8.0
5 19 8.0
5 20 15.0
5 21 49.0
5 22 45.0
5 23 38.0
5 24 31.0
5 25 29.0
5 26 18.0
5 27 43.0
5 28 24.0
5 29 47.0
5 30 44.0
5 31 38.0
5 32 46.0
5 33 27.0
5 34 31.0
5 35 42.0
5 36 56.0
5 37 61.0
5 38 13.0
5 39 27.0
5 40 41.0
5 41 25.0
5 42 13.0
5 43 16.0
5 44 41.0
5 45 15.0
5 46 25.0
5 47 18.0
5 48 8.0
5 49 29.0
5 50 28.0
5 51 38.0
6 1 14.0
6 2 22.0
6 3 21.0
6 4 36.0
6 5 20.0
6 6 0.0
6 7 25.0
6 8 40.0
6 9 33.0
6 10 12.0
6 11 14.0
6 12 11.0
6 13 9.0
6 14 35.0
6 15 30.0
6 16 15.0
6 17 16.0
6 18 15.0
6 19 23.0
6 20 32.0
6 21 33.0
6 22 25.0
6 23 27.0
6 24 36.0
6 25 39.0
6 26 34.0
6 27 40.0
6 28 21.0
6 29 37.0
6 30 25.0
6 31 18.0
6 32 39.0
6 33 16.0
6 34 21.0
6 35 21.0
6 36 40.0
6 37 45.0
6 38 11.0
6 39 7.0
6 40 24.0
6 41 42.0
6 42 33.0
6 43 28.0
6 44 49.0
6 45 18.0
6 46 20.0
6 47 12.0
6 48 15.0
6 49 29.0
6 50 8.0
6 51 17.0
7 1 11.0
7 2 17.0
7 3 28.0
7 4 35.0
7 5 21.0
7 6 25.0
7 7 0.0
7 8 16.0
7 9 18.0
7 10 34.0
7 11 40.0
7 12 22.0
7 13 18.0
7 14 27.0
7 15 10.0
7 16 34.0
7 17 32.0
7 18 25.0
7 19 15.0
7 20 35.0
7 21 38.0
7 22 41.0
7 23 23.0
7 24 11.0
7 25 14.0
7 26 17.0
7 27 22.0
7 28 9.0
7 29 30.0
7 30 37.0
7 31 42.0
7 32 27.0
7 33 17.0
7 34 45.0
7 35 42.0
7 36 44.0
7 37 47.0
7 38 27.0
7 39 27.0
7 40 50.0
7 41 44.0
7 42 32.0
7 43 37.0
7 44 23.0
7 45 33.0
7 46 41.0
7 47 14.0
7 48 16.0
7 49 9.0
7 50 33.0
7 51 36.0
8 1 26.0
8 2 23.0
8 3 35.0
8 4 35.0
8 5 37.0
8 6 40.0
8 7 16.0
8 8 0.0
8 9 14.0
8 10 46.0
8 11 54.0
8 12 33.0
8 13 34.0
8 14 40.0
8 15 22.0
8 16 51.0
8 17 41.0
8 18 41.0
8 19 30.0
8 20 50.0
8 21 40.0
8 22 50.0
8 23 26.0
8 24 6.0
8 25 14.0
8 26 27.0
8 27 11.0
8 28 20.0
8 29 26.0
8 30 44.0
8 31 55.0
8 32 21.0
8 33 27.0
8 34 60.0
8 35 53.0
8 36 45.0
8 37 46.0
8 38 44.0
8 39 40.0
8 40 64.0
8 41 58.0
8 42 47.0
8 43 53.0
8 44 12.0
8 45 50.0
8 46 57.0
8 47 28.0
8 48 32.0
8 49 11.0
8 50 47.0
8 51 47.0
9 1 22.0
9 2 12.0
9 3 22.0
9 4 21.0
9 5 38.0
9 6 33.0
9 7 18.0
9 8 14.0
9 9 0.0
9 10 36.0
9 11 46.0
9 12 24.0
9 13 30.0
9 14 45.0
9 15 28.0
9 16 46.0
9 17 30.0
9 18 39.0
9 19 32.0
9 20 52.0
9 21 26.0
9 22 37.0
9 23 12.0
9 24 16.0
9 25 25.0
9 26 34.0
9 27 7.0
9 28 14.0
9 29 13.0
9 30 30.0
9 31 44.0
9 32 9.0
9 33 17.0
9 34 54.0
9 35 42.0
9 36 31.0
9 37 33.0
9 38 40.0
9 39 30.0
9 40 55.0
9 41 62.0
9 42 50.0
9 43 53.0
9 44 26.0
9 45 47.0
9 46 53.0
9 47 23.0
9 48 31.0
9 49 9.0
9 50 38.0
9 51 35.0
10 1 23.0
10 2 24.0
10 3 16.0
10 4 31.0
10 5 33.0
10 6 12.0
10 7 34.0
10 8 46.0
10 9 36.0
10 10 0.0
10 11 12.0
10 12 13.0
10 13 21.0
10 14 48.0
10 15 41.0
10 16 23.0
10 17 8.0
10 18 27.0
10 19 35.0
10 20 44.0
10 21 25.0
10 22 13.0
10 23 26.0
10 24 43.0
10 25 48.0
10 26 45.0
10 27 43.0
10 28 27.0
10 29 35.0
10 30 16.0
10 31 8.0
10 32 39.0
10 33 19.0
10 34 24.0
10 35 9.0
10 36 32.0
10 37 38.0
10 38 23.0
10 39 7.0
10 40 19.0
10 41 54.0
10 42 45.0
10 43 39.0
10 44 56.0
10 45 28.0
10 46 26.0
10 47 21.0
10 48 27.0
10 49 35.0
10 50 6.0
10 51 6.0
11 1 28.0
11 2 34.0
11 3 28.0
11 4 43.0
11 5 31.0
11 6 14.0
11 7 40.0
11 8 54.0
11 9 46.0
11 10 12.0
11 11 0.0
11 12 22.0
11 13 23.0
11 14 46.0
11 15 44.0
11 16 16.0
11 17 20.0
11 18 24.0
11 19 36.0
11 20 39.0
11 21 37.0
11 22 24.0
11 23 37.0
11 24 50.0
11 25 53.0
11 26 47.0
11 27 53.0
11 28 34.0
11 29 47.0
11 30 28.0
11 31 9.0
11 32 50.0
11 33 28.0
11 34 12.0
11 35 16.0
11 36 43.0
11 37 49.0
11 38 19.0
11 39 15.0
11 40 10.0
11 41 48.0
11 42 41.0
11 43 32.0
11 44 63.0
11 45 22.0
11 46 16.0
11 47 26.0
11 48 28.0
11 49 43.0
11 50 8.0
11 51 17.0
12 1 12.0
12 2 12.0
12 3 11.0
12 4 25.0
12 5 27.0
12 6 11.0
12 7 22.0
12 8 33.0
12 9 24.0
12 10 13.0
12 11 22.0
12 12 0.0
12 13 14.0
12 14 40.0
12 15 30.0
12 16 26.0
12 17 10.0
12 18 23.0
12 19 26.0
12 20 40.0
12 21 23.0
12 22 20.0
12 23 16.0
12 24 31.0
12 25 36.0
12 26 35.0
12 27 31.0
12 28 14.0
12 29 26.0
12 30 17.0
12 31 21.0
12 32 28.0
12 33 6.0
12 34 31.0
12 35 21.0
12 36 30.0
12 37 35.0
12 38 21.0
12 39 7.0
12 40 31.0
12 41 51.0
12 42 40.0
12 43 37.0
12 44 44.0
12 45 29.0
12 46 31.0
12 47 10.0
12 48 19.0
12 49 22.0
12 50 14.0
12 51 15.0
13 1 8.0
13 2 21.0
13 3 25.0
13 4 38.0
13 5 13.0
13 6 9.0
13 7 18.0
13 8 34.0
13 9 30.0
13 10 21.0
13 11 23.0
13 12 14.0
13 13 0.0
13 14 27.0
13 15 21.0
13 16 17.0
13 17 23.0
13 18 10.0
13 19 14.0
13 20 26.0
13 21 37.0
13 22 33.0
13 23 27.0
13 24 29.0
13 25 30.0
13 26 25.0
13 27 36.0
13 28 16.0
13 29 37.0
13 30 31.0
13 31 27.0
13 32 37.0
13 33 16.0
13 34 27.0
13 35 30.0
13 36 44.0
13 37 49.0
13 38 10.0
13 39 14.0
13 40 33.0
13 41 37.0
13 42 26.0
13 43 24.0
13 44 41.0
13 45 17.0
13 46 23.0
13 47 7.0
13 48 6.0
13 49 24.0
13 50 17.0
13 51 25.0
14 1 29.0
14 2 42.0
14 3 50.0
14 4 61.0
14 5 15.0
14 6 35.0
14 7 27.0
14 8 40.0
14 9 45.0
14 10 48.0
14 11 46.0
14 12 40.0
14 13 27.0
14 14 0.0
14 15 18.0
14 16 32.0
14 17 50.0
14 18 22.0
14 19 14.0
14 20 14.0
14 21 62.0
14 22 59.0
14 23 49.0
14 24 34.0
14 25 27.0
14 26 13.0
14 27 48.0
14 28 34.0
14 29 57.0
14 30 58.0
14 31 53.0
14 32 54.0
14 33 39.0
14 34 44.0
14 35 57.0
14 36 69.0
14 37 73.0
14 38 27.0
14 39 41.0
14 40 55.0
14 41 19.0
14 42 9.0
14 43 22.0
14 44 39.0
14 45 27.0
14 46 37.0
14 47 30.0
14 48 21.0
14 49 36.0
14 50 43.0
14 51 52.0
15 1 18.0
15 2 27.0
15 3 38.0
15 4 46.0
15 5 18.0
15 6 30.0
15 7 10.0
15 8 22.0
15 9 28.0
15 10 41.0
15 11 44.0
15 12 30.0
15 13 21.0
15 14 18.0
15 15 0.0
15 16 35.0
15 17 40.0
15 18 24.0
15 19 10.0
15 20 29.0
15 21 48.0
15 22 50.0
15 23 34.0
15 24 16.0
15 25 11.0
15 26 6.0
15 27 30.0
15 28 19.0
15 29 40.0
15 30 46.0
15 31 48.0
15 32 37.0
15 33 26.0
15 34 47.0
15 35 50.0
15 36 54.0
15 37 58.0
15 38 28.0
15 39 34.0
15 40 54.0
15 41 37.0
15 42 25.0
15 43 33.0
15 44 23.0
15 45 32.0
15 46 42.0
15 47 20.0
15 48 16.0
15 49 18.0
15 50 39.0
15 51 44.0
16 1 25.0
16 2 36.0
16 3 35.0
16 4 51.0
16 5 19.0
16 6 15.0
16 7 34.0
16 8 51.0
16 9 46.0
16 10 23.0
16 11 16.0
16 12 26.0
16 13 17.0
16 14 32.0
16 15 35.0
16 16 0.0
16 17 30.0
16 18 11.0
16 19 25.0
16 20 23.0
16 21 47.0
16 22 37.0
16 23 41.0
16 24 46.0
16 25 46.0
16 26 36.0
16 27 53.0
16 28 33.0
16 29 51.0
16 30 39.0
16 31 25.0
16 32 53.0
16 33 30.0
16 34 12.0
16 35 30.0
16 36 54.0
16 37 59.0
16 38 7.0
16 39 21.0
16 40 23.0
16 41 33.0
16 42 26.0
16 43 16.0
16 44 57.0
16 45 6.0
16 46 7.0
16 47 23.0
16 48 19.0
16 49 41.0
16 50 17.0
16 51 29.0
17 1 22.0
17 2 19.0
17 3 9.0
17 4 23.0
17 5 35.0
17 6 16.0
17 7 32.0
17 8 41.0
17 9 30.0
17 10 8.0
17 11 20.0
17 12 10.0
17 13 23.0
17 14 50.0
17 15 40.0
17 16 30.0
17 17 0.0
17 18 31.0
17 19 36.0
17 20 48.0
17 21 18.0
17 22 10.0
17 23 19.0
17 24 39.0
17 25 45.0
17 26 45.0
17 27 37.0
17 28 23.0
17 29 28.0
17 30 9.0
17 31 15.0
17 32 32.0
17 33 15.0
17 34 32.0
17 35 12.0
17 36 24.0
17 37 30.0
17 38 28.0
17 39 9.0
17 40 27.0
17 41 59.0
17 42 48.0
17 43 44.0
17 44 52.0
17 45 34.0
17 46 34.0
17 47 20.0
17 48 28.0
17 49 30.0
17 50 14.0
17 51 6.0
18 1 17.0
18 2 31.0
18 3 34.0
18 4 48.0
18 5 8.0
18 6 15.0
18 7 25.0
18 8 41.0
18 9 39.0
18 10 27.0
18 11 24.0
18 12 23.0
18 13 10.0
18 14 22.0
18 15 24.0
18 16 11.0
18 17 31.0
18 18 0.0
18 19 14.0
18 20 17.0
18 21 46.0
18 22 40.0
18 23 37.0
18 24 36.0
18 25 35.0
18 26 25.0
18 27 45.0
18 28 25.0
18 29 47.0
18 30 40.0
18 31 31.0
18 32 47.0
18 33 25.0
18 34 23.0
18 35 35.0
18 36 53.0
18 37 58.0
18 38 5.0
18 39 22.0
18 40 33.0
18 41 28.0
18 42 18.0
18 43 14.0
18 44 47.0
18 45 9.0
18 46 18.0
18 47 17.0
18 48 9.0
18 49 32.0
18 50 22.0
18 51 32.0
19 1 15.0
19 2 28.0
19 3 36.0
19 4 47.0
19 5 8.0
19 6 23.0
19 7 15.0
19 8 30.0
19 9 32.0
19 10 35.0
19 11 36.0
19 12 26.0
19 13 14.0
19 14 14.0
19 15 10.0
19 16 25.0
19 17 36.0
19 18 14.0
19 19 0.0
19 20 20.0
19 21 47.0
19 22 46.0
19 23 35.0
19 24 24.0
19 25 21.0
19 26 11.0
19 27 36.0
19 28 20.0
19 29 43.0
19 30 44.0
19 31 41.0
19 32 41.0
19 33 25.0
19 34 37.0
19 35 44.0
19 36 54.0
19 37 58.0
19 38 19.0
19 39 28.0
19 40 46.0
19 41 30.0
19 42 17.0
19 43 23.0
19 44 33.0
19 45 22.0
19 46 32.0
19 47 16.0
19 48 8.0
19 49 23.0
19 50 31.0
19 51 39.0
20 1 32.0
20 2 46.0
20 3 51.0
20 4 64.0
20 5 15.0
20 6 32.0
20 7 35.0
20 8 50.0
20 9 52.0
20 10 44.0
20 11 39.0
20 12 40.0
20 13 26.0
20 14 14.0
20 15 29.0
20 16 23.0
20 17 48.0
20 18 17.0
20 19 20.0
20 20 0.0
20 21 63.0
20 22 57.0
20 23 53.0
20 24 44.0
20 25 39.0
20 26 26.0
20 27 57.0
20 28 39.0
20 29 62.0
20 30 57.0
20 31 47.0
20 32 61.0
20 33 41.0
20 34 33.0
20 35 52.0
20 36 70.0
20 37 75.0
20 38 21.0
20 39 39.0
20 40 46.0
20 41 11.0
20 42 5.0
20 43 9.0
20 44 52.0
20 45 17.0
20 46 26.0
20 47 32.0
20 48 22.0
20 49 44.0
20 50 38.0
20 51 49.0
21 1 32.0
21 2 21.0
21 3 12.0
21 4 8.0
21 5 49.0
21 6 33.0
21 7 38.0
21 8 40.0
21 9 26.0
21 10 25.0
21 11 37.0
21 12 23.0
21 13 37.0
21 14 62.0
21 15 48.0
21 16 47.0
21 17 18.0
21 18 46.0
21 19 47.0
21 20 63.0
21 21 0.0
21 22 17.0
21 23 15.0
21 24 41.0
21 25 49.0
21 26 54.0
21 27 32.0
21 28 29.0
21 29 17.0
21 30 10.0
21 31 31.0
21 32 23.0
21 33 22.0
21 34 49.0
21 35 25.0
21 36 7.0
21 37 13.0
21 38 44.0
21 39 26.0
21 40 43.0
21 41 74.0
21 42 62.0
21 43 60.0
21 44 52.0
21 45 51.0
21 46 51.0
21 47 31.0
21 48 41.0
21 49 32.0
21 50 31.0
21 51 21.0
22 1 32.0
22 2 27.0
22 3 15.0
22 4 24.0
22 5 45.0
22 6 25.0
22 7 41.0
22 8 50.0
22 9 37.0
22 10 13.0
22 11 24.0
22 12 20.0
22 13 33.0
22 14 59.0
22 15 50.0
22 16 37.0
22 17 10.0
22 18 40.0
22 19 46.0
22 20 57.0
22 21 17.0
22 22 0.0
22 23 25.0
22 24 48.0
22 25 55.0
22 26 55.0
22 27 44.0
22 28 33.0
22 29 31.0
22 30 7.0
22 31 16.0
22 32 37.0
22 33 24.0
22 34 36.0
22 35 9.0
22 36 21.0
22 37 27.0
22 38 36.0
22 39 18.0
22 40 27.0
22 41 67.0
22 42 58.0
22 43 52.0
22 44 61.0
22 45 42.0
22 46 39.0
22 47 30.0
22 48 38.0
22 49 39.0
22 50 20.0
22 51 8.0
23 1 21.0
23 2 7.0
23 3 11.0
23 4 12.0
23 5 38.0
23 6 27.0
23 7 23.0
23 8 26.0
23 9 12.0
23 10 26.0
23 11 37.0
23 12 16.0
23 13 27.0
23 14 49.0
23 15 34.0
23 16 41.0
23 17 19.0
23 18 37.0
23 19 35.0
23 20 53.0
23 21 15.0
23 22 25.0
23 23 0.0
23 24 26.0
23 25 34.0
23 26 40.0
23 27 19.0
23 28 15.0
23 29 10.0
23 30 18.0
23 31 34.0
23 32 13.0
23 33 12.0
23 34 47.0
23 35 31.0
23 36 21.0
23 37 24.0
23 38 36.0
23 39 22.0
23 40 45.0
23 41 63.0
23 42 51.0
23 43 51.0
23 44 38.0
23 45 44.0
23 46 47.0
23 47 21.0
23 48 30.0
23 49 17.0
23 50 30.0
23 51 24.0
24 1 22.0
24 2 22.0
24 3 34.0
24 4 37.0
24 5 31.0
24 6 36.0
24 7 11.0
24 8 6.0
24 9 16.0
24 10 43.0
24 11 50.0
24 12 31.0
24 13 29.0
24 14 34.0
24 15 16.0
24 16 46.0
24 17 39.0
24 18 36.0
24 19 24.0
24 20 44.0
24 21 41.0
24 22 48.0
24 23 26.0
24 24 0.0
24 25 9.0
24 26 21.0
24 27 16.0
24 28 17.0
24 29 29.0
24 30 43.0
24 31 52.0
24 32 24.0
24 33 25.0
24 34 56.0
24 35 51.0
24 36 46.0
24 37 49.0
24 38 38.0
24 39 36.0
24 40 60.0
24 41 52.0
24 42 40.0
24 43 47.0
24 44 13.0
24 45 44.0
24 46 52.0
24 47 24.0
24 48 27.0
24 49 9.0
24 50 43.0
24 51 45.0
25 1 25.0
25 2 29.0
25 3 41.0
25 4 46.0
25 5 29.0
25 6 39.0
25 7 14.0
25 8 14.0
25 9 25.0
25 10 48.0
25 11 53.0
25 12 36.0
25 13 30.0
25 14 27.0
25 15 11.0
25 16 46.0
25 17 45.0
25 18 35.0
25 19 21.0
25 20 39.0
25 21 49.0
25 22 55.0
25 23 34.0
25 24 9.0
25 25 0.0
25 26 14.0
25 27 25.0
25 28 22.0
25 29 38.0
25 30 50.0
25 31 56.0
25 32 34.0
25 33 31.0
25 34 57.0
25 35 56.0
25 36 55.0
25 37 58.0
25 38 38.0
25 39 41.0
25 40 63.0
25 41 46.0
25 42 35.0
25 43 44.0
25 44 12.0
25 45 43.0
25 46 52.0
25 47 27.0
25 48 26.0
25 49 17.0
25 50 47.0
25 51 50.0
26 1 23.0
26 2 33.0
26 3 43.0
26 4 52.0
26 5 18.0
26 6 34.0
26 7 17.0
26 8 27.0
26 9 34.0
26 10 45.0
26 11 47.0
26 12 35.0
26 13 25.0
26 14 13.0
26 15 6.0
26 16 36.0
26 17 45.0
26 18 25.0
26 19 11.0
26 20 26.0
26 21 54.0
26 22 55.0
26 23 40.0
26 24 21.0
26 25 14.0
26 26 0.0
26 27 36.0
26 28 25.0
26 29 46.0
26 30 52.0
26 31 52.0
26 32 43.0
26 33 32.0
26 34 48.0
26 35 54.0
26 36 60.0
26 37 64.0
26 38 30.0
26 39 38.0
26 40 57.0
26 41 32.0
26 42 21.0
26 43 31.0
26 44 26.0
26 45 33.0
26 46 43.0
26 47 25.0
26 48 19.0
26 49 25.0
26 50 42.0
26 51 49.0
27 1 28.0
27 2 19.0
27 3 29.0
27 4 25.0
27 5 43.0
27 6 40.0
27 7 22.0
27 8 11.0
27 9 7.0
27 10 43.0
27 11 53.0
27 12 31.0
27 13 36.0
27 14 48.0
27 15 30.0
27 16 53.0
27 17 37.0
27 18 45.0
27 19 36.0
27 20 57.0
27 21 32.0
27 22 44.0
27 23 19.0
27 24 16.0
27 25 25.0
27 26 36.0
27 27 0.0
27 28 20.0
27 29 16.0
27 30 37.0
27 31 51.0
27 32 10.0
27 33 25.0
27 34 61.0
27 35 49.0
27 36 35.0
27 37 36.0
27 38 46.0
27 39 38.0
27 40 62.0
27 41 66.0
27 42 54.0
27 43 58.0
27 44 22.0
27 45 53.0
27 46 59.0
27 47 29.0
27 48 36.0
27 49 13.0
27 50 45.0
27 51 42.0
28 1 8.0
28 2 8.0
28 3 19.0
28 4 27.0
28 5 24.0
28 6 21.0
28 7 9.0
28 8 20.0
28 9 14.0
28 10 27.0
28 11 34.0
28 12 14.0
28 13 16.0
28 14 34.0
28 15 19.0
28 16 33.0
28 17 23.0
28 18 25.0
28 19 20.0
28 20 39.0
28 21 29.0
28 22 33.0
28 23 15.0
28 24 17.0
28 25 22.0
28 26 25.0
28 27 20.0
28 28 0.0
28 29 23.0
28 30 28.0
28 31 35.0
28 32 22.0
28 33 8.0
28 34 41.0
28 35 34.0
28 36 35.0
28 37 39.0
28 38 26.0
28 39 20.0
28 40 44.0
28 41 49.0
28 42 37.0
28 43 39.0
28 44 30.0
28 45 33.0
28 46 39.0
28 47 9.0
28 48 17.0
28 49 9.0
28 50 27.0
28 51 28.0
29 1 30.0
29 2 16.0
29 3 19.0
29 4 9.0
29 5 47.0
29 6 37.0
29 7 30.0
29 8 26.0
29 9 13.0
29 10 35.0
29 11 47.0
29 12 26.0
29 13 37.0
29 14 57.0
29 15 40.0
29 16 51.0
29 17 28.0
29 18 47.0
29 19 43.0
29 20 62.0
29 21 17.0
29 22 31.0
29 23 10.0
29 24 29.0
29 25 38.0
29 26 46.0
29 27 16.0
29 28 23.0
29 29 0.0
29 30 24.0
29 31 43.0
29 32 6.0
29 33 22.0
29 34 57.0
29 35 38.0
29 36 19.0
29 37 20.0
29 38 46.0
29 39 32.0
29 40 54.0
29 41 72.0
29 42 60.0
29 43 61.0
29 44 38.0
29 45 54.0
29 46 57.0
29 47 30.0
29 48 39.0
29 49 22.0
29 50 39.0
29 51 33.0
30 1 29.0
30 2 21.0
30 3 9.0
30 4 17.0
30 5 44.0
30 6 25.0
30 7 37.0
30 8 44.0
30 9 30.0
30 10 16.0
30 11 28.0
30 12 17.0
30 13 31.0
30 14 58.0
30 15 46.0
30 16 39.0
30 17 9.0
30 18 40.0
30 19 44.0
30 20 57.0
30 21 10.0
30 22 7.0
30 23 18.0
30 24 43.0
30 25 50.0
30 26 52.0
30 27 37.0
30 28 28.0
30 29 24.0
30 30 0.0
30 31 21.0
30 32 30.0
30 33 20.0
30 34 40.0
30 35 15.0
30 36 16.0
30 37 22.0
30 38 37.0
30 39 18.0
30 40 33.0
30 41 68.0
30 42 57.0
30 43 53.0
30 44 55.0
30 45 43.0
30 46 42.0
30 47 28.0
30 48 37.0
30 49 34.0
30 50 22.0
30 51 11.0
31 1 31.0
31 2 33.0
31 3 24.0
31 4 37.0
31 5 38.0
31 6 18.0
31 7 42.0
31 8 55.0
31 9 44.0
31 10 8.0
31 11 9.0
31 12 21.0
31 13 27.0
31 14 53.0
31 15 48.0
31 16 25.0
31 17 15.0
31 18 31.0
31 19 41.0
31 20 47.0
31 21 31.0
31 22 16.0
31 23 34.0
31 24 52.0
31 25 56.0
31 26 52.0
31 27 51.0
31 28 35.0
31 29 43.0
31 30 21.0
31 31 0.0
31 32 47.0
31 33 28.0
31 34 21.0
31 35 7.0
31 36 36.0
31 37 42.0
31 38 26.0
31 39 15.0
31 40 12.0
31 41 57.0
31 42 49.0
31 43 41.0
31 44 65.0
31 45 30.0
31 46 25.0
31 47 29.0
31 48 33.0
31 49 43.0
31 50 10.0
31 51 10.0
32 1 30.0
32 2 17.0
32 3 23.0
32 4 16.0
32 5 46.0
32 6 39.0
32 7 27.0
32 8 21.0
32 9 9.0
32 10 39.0
32 11 50.0
32 12 28.0
32 13 37.0
32 14 54.0
32 15 37.0
32 16 53.0
32 17 32.0
32 18 47.0
32 19 41.0
32 20 61.0
32 21 23.0
32 22 37.0
32 23 13.0
32 24 24.0
32 25 34.0
32 26 43.0
32 27 10.0
32 28 22.0
32 29 6.0
32 30 30.0
32 31 47.0
32 32 0.0
32 33 23.0
32 34 60.0
32 35 43.0
32 36 26.0
32 37 26.0
32 38 47.0
32 39 35.0
32 40 58.0
32 41 71.0
32 42 59.0
32 43 61.0
32 44 32.0
32 45 54.0
32 46 59.0
32 47 30.0
32 48 39.0
32 49 18.0
32 50 42.0
32 51 37.0
33 1 10.0
33 2 6.0
33 3 11.0
33 4 23.0
33 5 27.0
33 6 16.0
33 7 17.0
33 8 27.0
33 9 17.0
33 10 19.0
33 11 28.0
33 12 6.0
33 13 16.0
33 14 39.0
33 15 26.0
33 16 30.0
33 17 15.0
33 18 25.0
33 19 25.0
33 20 41.0
33 21 22.0
33 22 24.0
33 23 12.0
33 24 25.0
33 25 31.0
33 26 32.0
33 27 25.0
33 28 8.0
33 29 22.0
33 30 20.0
33 31 28.0
33 32 23.0
33 33 0.0
33 34 37.0
33 35 26.0
33 36 29.0
33 37 34.0
33 38 25.0
33 39 13.0
33 40 37.0
33 41 52.0
33 42 40.0
33 43 40.0
33 44 38.0
33 45 32.0
33 46 36.0
33 47 9.0
33 48 19.0
33 49 16.0
33 50 21.0
33 51 20.0
34 1 34.0
34 2 43.0
34 3 39.0
34 4 54.0
34 5 31.0
34 6 21.0
34 7 45.0
34 8 60.0
34 9 54.0
34 10 24.0
34 11 12.0
34 12 31.0
34 13 27.0
34 14 44.0
34 15 47.0
34 16 12.0
34 17 32.0
34 18 23.0
34 19 37.0
34 20 33.0
34 21 49.0
34 22 36.0
34 23 47.0
34 24 56.0
34 25 57.0
34 26 48.0
34 27 61.0
34 28 41.0
34 29 57.0
34 30 40.0
34 31 21.0
34 32 60.0
34 33 37.0
34 34 0.0
34 35 27.0
34 36 55.0
34 37 61.0
34 38 18.0
34 39 25.0
34 40 14.0
34 41 41.0
34 42 37.0
34 43 25.0
34 44 68.0
34 45 17.0
34 46 7.0
34 47 32.0
34 48 30.0
34 49 50.0
34 50 18.0
34 51 29.0
35 1 32.0
35 2 31.0
35 3 20.0
35 4 32.0
35 5 42.0
35 6 21.0
35 7 42.0
35 8 53.0
35 9 42.0
35 10 9.0
35 11 16.0
35 12 21.0
35 13 30.0
35 14 57.0
35 15 50.0
35 16 30.0
35 17 12.0
35 18 35.0
35 19 44.0
35 20 52.0
35 21 25.0
35 22 9.0
35 23 31.0
35 24 51.0
35 25 56.0
35 26 54.0
35 27 49.0
35 28 34.0
35 29 38.0
35 30 15.0
35 31 7.0
35 32 43.0
35 33 26.0
35 34 27.0
35 35 0.0
35 36 30.0
35 37 36.0
35 38 31.0
35 39 16.0
35 40 18.0
35 41 62.0
35 42 53.0
35 43 46.0
35 44 64.0
35 45 36.0
35 46 32.0
35 47 30.0
35 48 36.0
35 49 42.0
35 50 14.0
35 51 6.0
36 1 39.0
36 2 27.0
36 3 19.0
36 4 10.0
36 5 56.0
36 6 40.0
36 7 44.0
36 8 45.0
36 9 31.0
36 10 32.0
36 11 43.0
36 12 30.0
36 13 44.0
36 14 69.0
36 15 54.0
36 16 54.0
36 17 24.0
36 18 53.0
36 19 54.0
36 20 70.0
36 21 7.0
36 22 21.0
36 23 21.0
36 24 46.0
36 25 55.0
36 26 60.0
36 27 35.0
36 28 35.0
36 29 19.0
36 30 16.0
36 31 36.0
36 32 26.0
36 33 29.0
36 34 55.0
36 35 30.0
36 36 0.0
36 37 6.0
36 38 51.0
36 39 33.0
36 40 48.0
36 41 81.0
36 42 69.0
36 43 67.0
36 44 57.0
36 45 58.0
36 46 58.0
36 47 38.0
36 48 48.0
36 49 38.0
36 50 38.0
36 51 27.0
37 1 44.0
37 2 31.0
37 3 24.0
37 4 12.0
37 5 61.0
37 6 45.0
37 7 47.0
37 8 46.0
37 9 33.0
37 10 38.0
37 11 49.0
37 12 35.0
37 13 49.0
37 14 73.0
37 15 58.0
37 16 59.0
37 17 30.0
37 18 58.0
37 19 58.0
37 20 75.0
37 21 13.0
37 22 27.0
37 23 24.0
37 24 49.0
37 25 58.0
37 26 64.0
37 27 36.0
37 28 39.0
37 29 20.0
37 30 22.0
37 31 42.0
37 32 26.0
37 33 34.0
37 34 61.0
37 35 36.0
37 36 6.0
37 37 0.0
37 38 56.0
37 39 38.0
37 40 54.0
37 41 86.0
37 42 74.0
37 43 72.0
37 44 58.0
37 45 63.0
37 46 64.0
37 47 43.0
37 48 53.0
37 49 40.0
37 50 44.0
37 51 33.0
38 1 18.0
38 2 30.0
38 3 32.0
38 4 47.0
38 5 13.0
38 6 11.0
38 7 27.0
38 8 44.0
38 9 40.0
38 10 23.0
38 11 19.0
38 12 21.0
38 13 10.0
38 14 27.0
38 15 28.0
38 16 7.0
38 17 28.0
38 18 5.0
38 19 19.0
38 20 21.0
38 21 44.0
38 22 36.0
38 23 36.0
38 24 38.0
38 25 38.0
38 26 30.0
38 27 46.0
38 28 26.0
38 29 46.0
38 30 37.0
38 31 26.0
38 32 47.0
38 33 25.0
38 34 18.0
38 35 31.0
38 36 51.0
38 37 56.0
38 38 0.0
38 39 18.0
38 40 28.0
38 41 31.0
38 42 23.0
38 43 16.0
38 44 50.0
38 45 7.0
38 46 14.0
38 47 17.0
38 48 12.0
38 49 34.0
38 50 17.0
38 51 28.0
39 1 16.0
39 2 19.0
39 3 15.0
39 4 30.0
39 5 27.0
39 6 7.0
39 7 27.0
39 8 40.0
39 9 30.0
39 10 7.0
39 11 15.0
39 12 7.0
39 13 14.0
39 14 41.0
39 15 34.0
39 16 21.0
39 17 9.0
39 18 22.0
39 19 28.0
39 20 39.0
39 21 26.0
39 22 18.0
39 23 22.0
39 24 36.0
39 25 41.0
39 26 38.0
39 27 38.0
39 28 20.0
39 29 32.0
39 30 18.0
39 31 15.0
39 32 35.0
39 33 13.0
39 34 25.0
39 35 16.0
39 36 33.0
39 37 38.0
39 38 18.0
39 39 0.0
39 40 24.0
39 41 49.0
39 42 39.0
39 43 35.0
39 44 49.0
39 45 25.0
39 46 26.0
39 47 14.0
39 48 20.0
39 49 28.0
39 50 8.0
39 51 11.0
40 1 38.0
40 2 43.0
40 3 35.0
40 4 49.0
40 5 41.0
40 6 24.0
40 7 50.0
40 8 64.0
40 9 55.0
40 10 19.0
40 11 10.0
40 12 31.0
40 13 33.0
40 14 55.0
40 15 54.0
40 16 23.0
40 17 27.0
40 18 33.0
40 19 46.0
40 20 46.0
40 21 43.0
40 22 27.0
40 23 45.0
40 24 60.0
40 25 63.0
40 26 57.0
40 27 62.0
40 28 44.0
40 29 54.0
40 30 33.0
40 31 12.0
40 32 58.0
40 33 37.0
40 34 14.0
40 35 18.0
40 36 48.0
40 37 54.0
40 38 28.0
40 39 24.0
40 40 0.0
40 41 55.0
40 42 49.0
40 43 38.0
40 44 73.0
40 45 29.0
40 46 21.0
40 47 36.0
40 48 38.0
40 49 52.0
40 50 17.0
40 51 22.0
41 1 42.0
41 2 56.0
41 3 62.0
41 4 75.0
41 5 25.0
41 6 42.0
41 7 44.0
41 8 58.0
41 9 62.0
41 10 54.0
41 11 48.0
41 12 51.0
41 13 37.0
41 14 19.0
41 15 37.0
41 16 33.0
41 17 59.0
41 18 28.0
41 19 30.0
41 20 11.0
41 21 74.0
41 22 67.0
41 23 63.0
41 24 52.0
41 25 46.0
41 26 32.0
41 27 66.0
41 28 49.0
41 29 72.0
41 30 68.0
41 31 57.0
41 32 71.0
41 33 52.0
41 34 41.0
41 35 62.0
41 36 81.0
41 37 86.0
41 38 31.0
41 39 49.0
41 40 55.0
41 41 0.0
41 42 12.0
41 43 16.0
41 44 58.0
41 45 27.0
41 46 34.0
41 47 43.0
41 48 33.0
41 49 53.0
41 50 48.0
41 51 60.0
42 1 30.0
42 2 44.0
42 3 50.0
42 4 63.0
42 5 13.0
42 6 33.0
42 7 32.0
42 8 47.0
42 9 50.0
42 10 45.0
42 11 41.0
42 12 40.0
42 13 26.0
42 14 9.0
42 15 25.0
42 16 26.0
42 17 48.0
42 18 18.0
42 19 17.0
42 20 5.0
42 21 62.0
42 22 58.0
42 23 51.0
42 24 40.0
42 25 35.0
42 26 21.0
42 27 54.0
42 28 37.0
42 29 60.0
42 30 57.0
42 31 49.0
42 32 59.0
42 33 40.0
42 34 37.0
42 35 53.0
42 36 69.0
42 37 74.0
42 38 23.0
42 39 39.0
42 40 49.0
42 41 12.0
42 42 0.0
42 43 13.0
42 44 47.0
42 45 20.0
42 46 30.0
42 47 31.0
42 48 21.0
42 49 41.0
42 50 40.0
42 51 50.0
43 1 31.0
43 2 45.0
43 3 48.0
43 4 62.0
43 5 16.0
43 6 28.0
43 7 37.0
43 8 53.0
43 9 53.0
43 10 39.0
43 11 32.0
43 12 37.0
43 13 24.0
43 14 22.0
43 15 33.0
43 16 16.0
43 17 44.0
43 18 14.0
43 19 23.0
43 20 9.0
43 21 60.0
43 22 52.0
43 23 51.0
43 24 47.0
43 25 44.0
43 26 31.0
43 27 58.0
43 28 39.0
43 29 61.0
43 30 53.0
43 31 41.0
43 32 61.0
43 33 40.0
43 34 25.0
43 35 46.0
43 36 67.0
43 37 72.0
43 38 16.0
43 39 35.0
43 40 38.0
43 41 16.0
43 42 13.0
43 43 0.0
43 44 56.0
43 45 10.0
43 46 18.0
43 47 31.0
43 48 22.0
43 49 45.0
43 50 32.0
43 51 44.0
44 1 35.0
44 2 34.0
44 3 46.0
44 4 47.0
44 5 41.0
44 6 49.0
44 7 23.0
44 8 12.0
44 9 26.0
44 10 56.0
44 11 63.0
44 12 44.0
44 13 41.0
44 14 39.0
44 15 23.0
44 16 57.0
44 17 52.0
44 18 47.0
44 19 33.0
44 20 52.0
44 21 52.0
44 22 61.0
44 23 38.0
44 24 13.0
44 25 12.0
44 26 26.0
44 27 22.0
44 28 30.0
44 29 38.0
44 30 55.0
44 31 65.0
44 32 32.0
44 33 38.0
44 34 68.0
44 35 64.0
44 36 57.0
44 37 58.0
44 38 50.0
44 39 49.0
44 40 73.0
44 41 58.0
44 42 47.0
44 43 56.0
44 44 0.0
44 45 55.0
44 46 64.0
44 47 37.0
44 48 38.0
44 49 22.0
44 50 56.0
44 51 58.0
45 1 25.0
45 2 38.0
45 3 39.0
45 4 54.0
45 5 15.0
45 6 18.0
45 7 33.0
45 8 50.0
45 9 47.0
45 10 28.0
45 11 22.0
45 12 29.0
45 13 17.0
45 14 27.0
45 15 32.0
45 16 6.0
45 17 34.0
45 18 9.0
45 19 22.0
45 20 17.0
45 21 51.0
45 22 42.0
45 23 44.0
45 24 44.0
45 25 43.0
45 26 33.0
45 27 53.0
45 28 33.0
45 29 54.0
45 30 43.0
45 31 30.0
45 32 54.0
45 33 32.0
45 34 17.0
45 35 36.0
45 36 58.0
45 37 63.0
45 38 7.0
45 39 25.0
45 40 29.0
45 41 27.0
45 42 20.0
45 43 10.0
45 44 55.0
45 45 0.0
45 46 10.0
45 47 24.0
45 48 18.0
45 49 40.0
45 50 22.0
45 51 34.0
46 1 31.0
46 2 42.0
46 3 40.0
46 4 56.0
46 5 25.0
46 6 20.0
46 7 41.0
46 8 57.0
46 9 53.0
46 10 26.0
46 11 16.0
46 12 31.0
46 13 23.0
46 14 37.0
46 15 42.0
46 16 7.0
46 17 34.0
46 18 18.0
46 19 32.0
46 20 26.0
46 21 51.0
46 22 39.0
46 23 47.0
46 24 52.0
46 25 52.0
46 26 43.0
46 27 59.0
46 28 39.0
46 29 57.0
46 30 42.0
46 31 25.0
46 32 59.0
46 33 36.0
46 34 7.0
46 35 32.0
46 36 58.0
46 37 64.0
46 38 14.0
46 39 26.0
46 40 21.0
46 41 34.0
46 42 30.0
46 43 18.0
46 44 64.0
46 45 10.0
46 46 0.0
46 47 30.0
46 48 26.0
46 49 47.0
46 50 20.0
46 51 32.0
47 1 2.0
47 2 14.0
47 3 20.0
47 4 32.0
47 5 18.0
47 6 12.0
47 7 14.0
47 8 28.0
47 9 23.0
47 10 21.0
47 11 26.0
47 12 10.0
47 13 7.0
47 14 30.0
47 15 20.0
47 16 23.0
47 17 20.0
47 18 17.0
47 19 16.0
47 20 32.0
47 21 31.0
47 22 30.0
47 23 21.0
47 24 24.0
47 25 27.0
47 26 25.0
47 27 29.0
47 28 9.0
47 29 30.0
47 30 28.0
47 31 29.0
47 32 30.0
47 33 9.0
47 34 32.0
47 35 30.0
47 36 38.0
47 37 43.0
47 38 17.0
47 39 14.0
47 40 36.0
47 41 43.0
47 42 31.0
47 43 31.0
47 44 37.0
47 45 24.0
47 46 30.0
47 47 0.0
47 48 10.0
47 49 17.0
47 50 19.0
47 51 24.0
48 1 9.0
48 2 23.0
48 3 29.0
48 4 42.0
48 5 8.0
48 6 15.0
48 7 16.0
48 8 32.0
48 9 31.0
48 10 27.0
48 11 28.0
48 12 19.0
48 13 6.0
48 14 21.0
48 15 16.0
48 16 19.0
48 17 28.0
48 18 9.0
48 19 8.0
48 20 22.0
48 21 41.0
48 22 38.0
48 23 30.0
48 24 27.0
48 25 26.0
48 26 19.0
48 27 36.0
48 28 17.0
48 29 39.0
48 30 37.0
48 31 33.0
48 32 39.0
48 33 19.0
48 34 30.0
48 35 36.0
48 36 48.0
48 37 53.0
48 38 12.0
48 39 20.0
48 40 38.0
48 41 33.0
48 42 21.0
48 43 22.0
48 44 38.0
48 45 18.0
48 46 26.0
48 47 10.0
48 48 0.0
48 49 23.0
48 50 23.0
48 51 31.0
49 1 16.0
49 2 12.0
49 3 25.0
49 4 28.0
49 5 29.0
49 6 29.0
49 7 9.0
49 8 11.0
49 9 9.0
49 10 35.0
49 11 43.0
49 12 22.0
49 13 24.0
49 14 36.0
49 15 18.0
49 16 41.0
49 17 30.0
49 18 32.0
49 19 23.0
49 20 44.0
49 21 32.0
49 22 39.0
49 23 17.0
49 24 9.0
49 25 17.0
49 26 25.0
49 27 13.0
49 28 9.0
49 29 22.0
49 30 34.0
49 31 43.0
49 32 18.0
49 33 16.0
49 34 50.0
49 35 42.0
49 36 38.0
49 37 40.0
49 38 34.0
49 39 28.0
49 40 52.0
49 41 53.0
49 42 41.0
49 43 45.0
49 44 22.0
49 45 40.0
49 46 47.0
49 47 17.0
49 48 23.0
49 49 0.0
49 50 35.0
49 51 36.0
50 1 22.0
50 2 26.0
50 3 21.0
50 4 36.0
50 5 28.0
50 6 8.0
50 7 33.0
50 8 47.0
50 9 38.0
50 10 6.0
50 11 8.0
50 12 14.0
50 13 17.0
50 14 43.0
50 15 39.0
50 16 17.0
50 17 14.0
50 18 22.0
50 19 31.0
50 20 38.0
50 21 31.0
50 22 20.0
50 23 30.0
50 24 43.0
50 25 47.0
50 26 42.0
50 27 45.0
50 28 27.0
50 29 39.0
50 30 22.0
50 31 10.0
50 32 42.0
50 33 21.0
50 34 18.0
50 35 14.0
50 36 38.0
50 37 44.0
50 38 17.0
50 39 8.0
50 40 17.0
50 41 48.0
50 42 40.0
50 43 32.0
50 44 56.0
50 45 22.0
50 46 20.0
50 47 19.0
50 48 23.0
50 49 35.0
50 50 0.0
50 51 12.0
51 1 26.0
51 2 24.0
51 3 14.0
51 4 27.0
51 5 38.0
51 6 17.0
51 7 36.0
51 8 47.0
51 9 35.0
51 10 6.0
51 11 17.0
51 12 15.0
51 13 25.0
51 14 52.0
51 15 44.0
51 16 29.0
51 17 6.0
51 18 32.0
51 19 39.0
51 20 49.0
51 21 21.0
51 22 8.0
51 23 24.0
51 24 45.0
51 25 50.0
51 26 49.0
51 27 42.0
51 28 28.0
51 29 33.0
51 30 11.0
51 31 10.0
51 32 37.0
51 33 20.0
51 34 29.0
51 35 6.0
51 36 27.0
51 37 33.0
51 38 28.0
51 39 11.0
51 40 22.0
51 41 60.0
51 42 50.0
51 43 44.0
51 44 58.0
51 45 34.0
51 46 32.0
51 47 24.0
51 48 31.0
51 49 36.0
51 50 12.0
51 51 0.0
